unsat
(:binary-propagations  246
 :conflicts            1
 :final-checks         1
 :max-generation       1
 :max-memory           35.09
 :memory               24.93
 :mk-bool-var          5593
 :mk-clause            1207
 :mk-clause-binary     3855
 :num-allocs           234792089
 :num-checks           1
 :propagations         246
 :quant-instantiations 564
 :restarts             1
 :rlimit-count         1433865
 :time                 0.17)
